% seed = 0

mint = 31;
% maxt = 65;

nActs = 22;
dur = [0,3,2,6,1,3,2,1,2,2,1,7,4,4,2,1,7,5,1,8,3,0];

nSkills = 3;
sreq = [| 0,0,0,
	| 3,0,2,
	| 0,0,3,
	| 0,0,2,
	| 4,1,0,
	| 0,5,4,
	| 3,5,0,
	| 2,0,4,
	| 3,2,0,
	| 0,2,4,
	| 3,3,2,
	| 4,1,4,
	| 1,4,4,
	| 0,2,0,
	| 5,5,4,
	| 1,5,4,
	| 4,5,0,
	| 3,2,0,
	| 5,3,3,
	| 0,4,6,
	| 0,6,2,
	| 0,0,0, |];

% SumOfsreq = 144;

nResources = 22;
mastery = [| true,true,false,
	| true,false,true,
	| true,true,true,
	| true,true,false,
	| false,true,true,
	| false,true,true,
	| false,true,true,
	| false,true,false,
	| false,true,true,
	| false,true,true,
	| true,false,false,
	| true,false,false,
	| false,true,true,
	| false,true,true,
	| false,false,true,
	| false,false,true,
	| false,true,false,
	| false,false,true,
	| true,false,false,
	| false,true,false,
	| true,false,false,
	| true,true,false, |];

nPrecs = 35;
pred = [1,1,1,2,2,3,3,3,4,4,5,5,6,6,7,7,8,8,9,9,10,11,12,12,12,13,13,14,15,16,17,18,19,20,21];
succ = [2,3,4,5,6,5,6,7,5,8,9,10,10,12,11,12,10,12,13,14,13,13,13,15,16,17,18,18,18,19,21,20,21,22,22];

nUnrels = 71;
unpred = [2,2,2,2,2,3,3,4,4,4,5,5,5,5,5,5,5,5,6,6,6,6,6,7,7,7,7,8,8,8,9,9,9,9,9,9,10,10,10,10,10,10,11,11,11,11,11,12,13,13,13,13,14,14,14,14,14,15,15,15,15,16,16,16,17,17,17,18,18,19,20];
unsucc = [3,4,7,8,11,4,8,6,7,11,6,7,8,11,12,15,16,19,7,8,9,11,14,8,9,10,14,9,11,14,10,11,12,15,16,19,11,12,14,15,16,19,12,14,15,16,19,14,14,15,16,19,15,16,17,19,21,16,17,19,21,17,18,20,18,19,20,19,21,20,21];

USEFUL_RES = [{},
	{1,2,3,4,5,6,7,9,10,11,12,13,14,15,16,18,19,21,22},
	{2,3,5,6,7,9,10,13,14,15,16,18},
	{2,3,5,6,7,9,10,13,14,15,16,18},
	{1,2,3,4,5,6,7,8,9,10,11,12,13,14,17,19,20,21,22},
	{1,2,3,4,5,6,7,8,9,10,13,14,15,16,17,18,20,22},
	{1,2,3,4,5,6,7,8,9,10,11,12,13,14,17,19,20,21,22},
	{1,2,3,4,5,6,7,9,10,11,12,13,14,15,16,18,19,21,22},
	{1,2,3,4,5,6,7,8,9,10,11,12,13,14,17,19,20,21,22},
	{1,2,3,4,5,6,7,8,9,10,13,14,15,16,17,18,20,22},
	{1,2,3,4,5,6,7,8,9,10,11,12,13,14,15,16,17,18,19,20,21,22},
	{1,2,3,4,5,6,7,8,9,10,11,12,13,14,15,16,17,18,19,20,21,22},
	{1,2,3,4,5,6,7,8,9,10,11,12,13,14,15,16,17,18,19,20,21,22},
	{1,3,4,5,6,7,8,9,10,13,14,17,20,22},
	{1,2,3,4,5,6,7,8,9,10,11,12,13,14,15,16,17,18,19,20,21,22},
	{1,2,3,4,5,6,7,8,9,10,11,12,13,14,15,16,17,18,19,20,21,22},
	{1,2,3,4,5,6,7,8,9,10,11,12,13,14,17,19,20,21,22},
	{1,2,3,4,5,6,7,8,9,10,11,12,13,14,17,19,20,21,22},
	{1,2,3,4,5,6,7,8,9,10,11,12,13,14,15,16,17,18,19,20,21,22},
	{1,2,3,4,5,6,7,8,9,10,13,14,15,16,17,18,20,22},
	{1,2,3,4,5,6,7,8,9,10,13,14,15,16,17,18,20,22},
	{}];

POTENTIAL_ACT = [{2,5,6,7,8,9,10,11,12,13,14,15,16,17,18,19,20,21},
	{2,3,4,5,6,7,8,9,10,11,12,13,15,16,17,18,19,20,21},
	{2,3,4,5,6,7,8,9,10,11,12,13,14,15,16,17,18,19,20,21},
	{2,5,6,7,8,9,10,11,12,13,14,15,16,17,18,19,20,21},
	{2,3,4,5,6,7,8,9,10,11,12,13,14,15,16,17,18,19,20,21},
	{2,3,4,5,6,7,8,9,10,11,12,13,14,15,16,17,18,19,20,21},
	{2,3,4,5,6,7,8,9,10,11,12,13,14,15,16,17,18,19,20,21},
	{5,6,7,9,10,11,12,13,14,15,16,17,18,19,20,21},
	{2,3,4,5,6,7,8,9,10,11,12,13,14,15,16,17,18,19,20,21},
	{2,3,4,5,6,7,8,9,10,11,12,13,14,15,16,17,18,19,20,21},
	{2,5,7,8,9,11,12,13,15,16,17,18,19},
	{2,5,7,8,9,11,12,13,15,16,17,18,19},
	{2,3,4,5,6,7,8,9,10,11,12,13,14,15,16,17,18,19,20,21},
	{2,3,4,5,6,7,8,9,10,11,12,13,14,15,16,17,18,19,20,21},
	{2,3,4,6,8,10,11,12,13,15,16,19,20,21},
	{2,3,4,6,8,10,11,12,13,15,16,19,20,21},
	{5,6,7,9,10,11,12,13,14,15,16,17,18,19,20,21},
	{2,3,4,6,8,10,11,12,13,15,16,19,20,21},
	{2,5,7,8,9,11,12,13,15,16,17,18,19},
	{5,6,7,9,10,11,12,13,14,15,16,17,18,19,20,21},
	{2,5,7,8,9,11,12,13,15,16,17,18,19},
	{2,5,6,7,8,9,10,11,12,13,14,15,16,17,18,19,20,21}];
